/* Objective function */
min: c;

a1_20+a1_21+a1_22+a1_23=1;
a2_18+a2_19+a2_20+a2_21+a2_22+a2_23=2;
a3_19+a3_20+a3_21=1;
a4_12+a4_13+a4_14+a4_15+a4_16+a4_17+a4_18+a4_19+a4_20=3;
a5_6+a5_7+a5_8+a5_9+a5_10+a5_11+a5_12=3;
a6_18+a6_19+a6_20=2;
a7_4+a7_5+a7_6+a7_7+a7_8+a7_9+a7_10=2;
a8_12+a8_13+a8_14+a8_15+a8_16+a8_18=2;
a9_7+a9_8+a9_9+a9_10+a9_11+a9_12+a9_13+a9_14=3;
a10_8+a10_9+a10_10+a10_11+a10_12+a10_13+a10_14=3;
0<=a1_20<=1;
0<=a1_21<=1;
0<=a1_22<=1;
0<=a1_23<=1;
0<=a2_18<=1;
0<=a2_19<=1;
0<=a2_20<=1;
0<=a2_21<=1;
0<=a2_22<=1;
0<=a2_23<=1;
0<=a3_19<=1;
0<=a3_20<=1;
0<=a3_21<=1;
0<=a4_12<=1;
0<=a4_13<=1;
0<=a4_14<=1;
0<=a4_15<=1;
0<=a4_16<=1;
0<=a4_17<=1;
0<=a4_18<=1;
0<=a4_19<=1;
0<=a4_20<=1;
0<=a5_6<=1;
0<=a5_7<=1;
0<=a5_8<=1;
0<=a5_9<=1;
0<=a5_10<=1;
0<=a5_11<=1;
0<=a5_12<=1;
0<=a6_18<=1;
0<=a6_19<=1;
0<=a6_20<=1;
0<=a7_4<=1;
0<=a7_5<=1;
0<=a7_6<=1;
0<=a7_7<=1;
0<=a7_8<=1;
0<=a7_9<=1;
0<=a7_10<=1;
0<=a8_12<=1;
0<=a8_13<=1;
0<=a8_14<=1;
0<=a8_15<=1;
0<=a8_16<=1;
0<=a8_17<=1;
0<=a8_18<=1;
0<=a9_7<=1;
0<=a9_8<=1;
0<=a9_9<=1;
0<=a9_10<=1;
0<=a9_11<=1;
0<=a9_12<=1;
0<=a9_13<=1;
0<=a9_14<=1;
0<=a10_8<=1;
0<=a10_9<=1;
0<=a10_10<=1;
0<=a10_11<=1;
0<=a10_12<=1;
0<=a10_13<=1;
0<=a10_14<=1;




/* Variable bounds */